(set-logic QF_S)
(declare-fun var0 () Int)
(declare-fun var1 () Int)
(declare-fun var2 () String)
(declare-fun var3 () Int)
(declare-fun var4 () String)
(declare-fun var5 () String)
(declare-fun var6 () String)
(assert (not (<= var0 var1)))
(assert (> (str.indexof var2 "_kVieRFYb" var3) (str.to.int var4)))
(assert (not (> (str.len var5) (str.len var6))))
(assert (str.prefixof var2 var6))
(check-sat)